; 
(set-info :status unknown)
(declare-fun standard_metadata.ingress_port () (_ BitVec 9))
(declare-fun standard_metadata.egress_spec () (_ BitVec 9))
(declare-fun h1.f1 () (_ BitVec 8))
(assert
 (let (($x3118 (= standard_metadata.ingress_port (_ bv1 9))))
 (and (and (distinct standard_metadata.ingress_port (_ bv511 9)) true) (or (or false (= standard_metadata.ingress_port (_ bv0 9))) $x3118))))
(assert
 (let (($x3120 (= standard_metadata.egress_spec (_ bv1 9))))
 (let (($x3111 (= standard_metadata.egress_spec (_ bv511 9))))
 (or $x3111 (or (or false (= standard_metadata.egress_spec (_ bv0 9))) $x3120)))))
(assert
 (let (($x41 (and true (not (= h1.f1 (concat (_ bv0 7) (_ bv0 1)))))))
 (let ((?x37 (concat (_ bv0 7) (_ bv0 1))))
 (let (($x38 (= h1.f1 ?x37)))
 (let (($x3109 (ite $x38 false $x41)))
 (let (($x3111 (= standard_metadata.egress_spec (_ bv511 9))))
 (let (($x3171 (not $x3111)))
 (and (and $x3171 $x3109) (= (- 1) (- 1))))))))))
(check-sat)

; 
(set-info :status unknown)
(declare-fun standard_metadata.ingress_port () (_ BitVec 9))
(declare-fun standard_metadata.egress_spec () (_ BitVec 9))
(declare-fun h1.f2 () (_ BitVec 8))
(declare-fun h1.f1 () (_ BitVec 8))
(assert
 (let (($x3118 (= standard_metadata.ingress_port (_ bv1 9))))
 (and (and (distinct standard_metadata.ingress_port (_ bv511 9)) true) (or (or false (= standard_metadata.ingress_port (_ bv0 9))) $x3118))))
(assert
 (let (($x3120 (= standard_metadata.egress_spec (_ bv1 9))))
 (let (($x3111 (= standard_metadata.egress_spec (_ bv511 9))))
 (or $x3111 (or (or false (= standard_metadata.egress_spec (_ bv0 9))) $x3120)))))
(assert
 (let ((?x37 (concat (_ bv0 7) (_ bv0 1))))
 (let (($x43 (= h1.f2 ?x37)))
 (let (($x44 (not $x43)))
 (let (($x41 (and true (not (= h1.f1 ?x37)))))
 (let (($x1579 (and $x41 $x44)))
 (let (($x38 (= h1.f1 ?x37)))
 (let (($x3092 (ite $x38 (ite $x43 false (and (and true $x38) $x44)) (ite $x43 false $x1579))))
 (let (($x3111 (= standard_metadata.egress_spec (_ bv511 9))))
 (let (($x3171 (not $x3111)))
 (and (and $x3171 $x3092) (= (- 1) (- 1)))))))))))))
(check-sat)

; 
(set-info :status unknown)
(declare-fun standard_metadata.ingress_port () (_ BitVec 9))
(declare-fun standard_metadata.egress_spec () (_ BitVec 9))
(declare-fun h1.f3 () (_ BitVec 8))
(declare-fun h1.f2 () (_ BitVec 8))
(declare-fun h1.f1 () (_ BitVec 8))
(assert
 (let (($x3118 (= standard_metadata.ingress_port (_ bv1 9))))
 (and (and (distinct standard_metadata.ingress_port (_ bv511 9)) true) (or (or false (= standard_metadata.ingress_port (_ bv0 9))) $x3118))))
(assert
 (let (($x3120 (= standard_metadata.egress_spec (_ bv1 9))))
 (let (($x3111 (= standard_metadata.egress_spec (_ bv511 9))))
 (or $x3111 (or (or false (= standard_metadata.egress_spec (_ bv0 9))) $x3120)))))
(assert
 (let ((?x37 (concat (_ bv0 7) (_ bv0 1))))
 (let (($x47 (= h1.f3 ?x37)))
 (let (($x48 (not $x47)))
 (let (($x43 (= h1.f2 ?x37)))
 (let (($x44 (not $x43)))
 (let (($x41 (and true (not (= h1.f1 ?x37)))))
 (let (($x1579 (and $x41 $x44)))
 (let (($x2329 (and $x1579 $x48)))
 (let (($x3076 (ite $x43 (ite $x47 false (and (and $x41 $x43) $x48)) (ite $x47 false $x2329))))
 (let (($x38 (= h1.f1 ?x37)))
 (let (($x40 (and true $x38)))
 (let (($x46 (and $x40 $x44)))
 (let (($x815 (and $x46 $x48)))
 (let (($x1562 (ite $x43 (ite $x47 false (and (and $x40 $x43) $x48)) (ite $x47 false $x815))))
 (let (($x3093 (ite $x38 $x1562 $x3076)))
 (let (($x3111 (= standard_metadata.egress_spec (_ bv511 9))))
 (let (($x3171 (not $x3111)))
 (and (and $x3171 $x3093) (= (- 1) (- 1)))))))))))))))))))))
(check-sat)

; 
(set-info :status unknown)
(declare-fun standard_metadata.ingress_port () (_ BitVec 9))
(declare-fun standard_metadata.egress_spec () (_ BitVec 9))
(declare-fun h1.f4 () (_ BitVec 8))
(declare-fun h1.f3 () (_ BitVec 8))
(declare-fun h1.f2 () (_ BitVec 8))
(declare-fun h1.f1 () (_ BitVec 8))
(assert
 (let (($x3118 (= standard_metadata.ingress_port (_ bv1 9))))
 (and (and (distinct standard_metadata.ingress_port (_ bv511 9)) true) (or (or false (= standard_metadata.ingress_port (_ bv0 9))) $x3118))))
(assert
 (let (($x3120 (= standard_metadata.egress_spec (_ bv1 9))))
 (let (($x3111 (= standard_metadata.egress_spec (_ bv511 9))))
 (or $x3111 (or (or false (= standard_metadata.egress_spec (_ bv0 9))) $x3120)))))
(assert
 (let ((?x37 (concat (_ bv0 7) (_ bv0 1))))
 (let (($x51 (= h1.f4 ?x37)))
 (let (($x52 (not $x51)))
 (let (($x47 (= h1.f3 ?x37)))
 (let (($x48 (not $x47)))
 (let (($x43 (= h1.f2 ?x37)))
 (let (($x44 (not $x43)))
 (let (($x41 (and true (not (= h1.f1 ?x37)))))
 (let (($x1579 (and $x41 $x44)))
 (let (($x2329 (and $x1579 $x48)))
 (let (($x2697 (and $x2329 $x52)))
 (let (($x3062 (ite $x47 (ite $x51 false (and (and $x1579 $x47) $x52)) (ite $x51 false $x2697))))
 (let (($x2314 (ite $x47 (ite $x51 false (and (and (and $x41 $x43) $x47) $x52)) (ite $x51 false (and (and (and $x41 $x43) $x48) $x52)))))
 (let (($x38 (= h1.f1 ?x37)))
 (let (($x40 (and true $x38)))
 (let (($x46 (and $x40 $x44)))
 (let (($x815 (and $x46 $x48)))
 (let (($x1183 (and $x815 $x52)))
 (let (($x1548 (ite $x47 (ite $x51 false (and (and $x46 $x47) $x52)) (ite $x51 false $x1183))))
 (let (($x800 (ite $x47 (ite $x51 false (and (and (and $x40 $x43) $x47) $x52)) (ite $x51 false (and (and (and $x40 $x43) $x48) $x52)))))
 (let (($x3094 (ite $x38 (ite $x43 $x800 $x1548) (ite $x43 $x2314 $x3062))))
 (let (($x3111 (= standard_metadata.egress_spec (_ bv511 9))))
 (let (($x3171 (not $x3111)))
 (and (and $x3171 $x3094) (= (- 1) (- 1)))))))))))))))))))))))))))
(check-sat)

; 
(set-info :status unknown)
(declare-fun standard_metadata.ingress_port () (_ BitVec 9))
(declare-fun standard_metadata.egress_spec () (_ BitVec 9))
(declare-fun h1.f5 () (_ BitVec 8))
(declare-fun h1.f4 () (_ BitVec 8))
(declare-fun h1.f3 () (_ BitVec 8))
(declare-fun h1.f2 () (_ BitVec 8))
(declare-fun h1.f1 () (_ BitVec 8))
(assert
 (let (($x3118 (= standard_metadata.ingress_port (_ bv1 9))))
 (and (and (distinct standard_metadata.ingress_port (_ bv511 9)) true) (or (or false (= standard_metadata.ingress_port (_ bv0 9))) $x3118))))
(assert
 (let (($x3120 (= standard_metadata.egress_spec (_ bv1 9))))
 (let (($x3111 (= standard_metadata.egress_spec (_ bv511 9))))
 (or $x3111 (or (or false (= standard_metadata.egress_spec (_ bv0 9))) $x3120)))))
(assert
 (let ((?x37 (concat (_ bv0 7) (_ bv0 1))))
 (let (($x55 (= h1.f5 ?x37)))
 (let (($x56 (not $x55)))
 (let (($x51 (= h1.f4 ?x37)))
 (let (($x52 (not $x51)))
 (let (($x47 (= h1.f3 ?x37)))
 (let (($x48 (not $x47)))
 (let (($x43 (= h1.f2 ?x37)))
 (let (($x44 (not $x43)))
 (let (($x41 (and true (not (= h1.f1 ?x37)))))
 (let (($x1579 (and $x41 $x44)))
 (let (($x2329 (and $x1579 $x48)))
 (let (($x2697 (and $x2329 $x52)))
 (let (($x2875 (and $x2697 $x56)))
 (let (($x3050 (ite $x51 (ite $x55 false (and (and $x2329 $x51) $x56)) (ite $x55 false $x2875))))
 (let (($x2684 (ite $x51 (ite $x55 false (and (and (and $x1579 $x47) $x51) $x56)) (ite $x55 false (and (and (and $x1579 $x47) $x52) $x56)))))
 (let (($x2302 (ite $x51 (ite $x55 false (and (and (and (and $x41 $x43) $x48) $x51) $x56)) (ite $x55 false (and (and (and (and $x41 $x43) $x48) $x52) $x56)))))
 (let (($x1936 (ite $x51 (ite $x55 false (and (and (and (and $x41 $x43) $x47) $x51) $x56)) (ite $x55 false (and (and (and (and $x41 $x43) $x47) $x52) $x56)))))
 (let (($x38 (= h1.f1 ?x37)))
 (let (($x40 (and true $x38)))
 (let (($x46 (and $x40 $x44)))
 (let (($x815 (and $x46 $x48)))
 (let (($x1183 (and $x815 $x52)))
 (let (($x1361 (and $x1183 $x56)))
 (let (($x1536 (ite $x51 (ite $x55 false (and (and $x815 $x51) $x56)) (ite $x55 false $x1361))))
 (let (($x1170 (ite $x51 (ite $x55 false (and (and (and $x46 $x47) $x51) $x56)) (ite $x55 false (and (and (and $x46 $x47) $x52) $x56)))))
 (let (($x788 (ite $x51 (ite $x55 false (and (and (and (and $x40 $x43) $x48) $x51) $x56)) (ite $x55 false (and (and (and (and $x40 $x43) $x48) $x52) $x56)))))
 (let (($x422 (ite $x51 (ite $x55 false (and (and (and (and $x40 $x43) $x47) $x51) $x56)) (ite $x55 false (and (and (and (and $x40 $x43) $x47) $x52) $x56)))))
 (let (($x3095 (ite $x38 (ite $x43 (ite $x47 $x422 $x788) (ite $x47 $x1170 $x1536)) (ite $x43 (ite $x47 $x1936 $x2302) (ite $x47 $x2684 $x3050)))))
 (let (($x3111 (= standard_metadata.egress_spec (_ bv511 9))))
 (let (($x3171 (not $x3111)))
 (and (and $x3171 $x3095) (= (- 1) (- 1)))))))))))))))))))))))))))))))))))
(check-sat)

; 
(set-info :status unknown)
(declare-fun standard_metadata.ingress_port () (_ BitVec 9))
(declare-fun standard_metadata.egress_spec () (_ BitVec 9))
(declare-fun h1.f6 () (_ BitVec 8))
(declare-fun h1.f5 () (_ BitVec 8))
(declare-fun h1.f4 () (_ BitVec 8))
(declare-fun h1.f3 () (_ BitVec 8))
(declare-fun h1.f2 () (_ BitVec 8))
(declare-fun h1.f1 () (_ BitVec 8))
(assert
 (let (($x3118 (= standard_metadata.ingress_port (_ bv1 9))))
 (and (and (distinct standard_metadata.ingress_port (_ bv511 9)) true) (or (or false (= standard_metadata.ingress_port (_ bv0 9))) $x3118))))
(assert
 (let (($x3120 (= standard_metadata.egress_spec (_ bv1 9))))
 (let (($x3111 (= standard_metadata.egress_spec (_ bv511 9))))
 (or $x3111 (or (or false (= standard_metadata.egress_spec (_ bv0 9))) $x3120)))))
(assert
 (let ((?x37 (concat (_ bv0 7) (_ bv0 1))))
 (let (($x59 (= h1.f6 ?x37)))
 (let (($x60 (not $x59)))
 (let (($x55 (= h1.f5 ?x37)))
 (let (($x56 (not $x55)))
 (let (($x51 (= h1.f4 ?x37)))
 (let (($x52 (not $x51)))
 (let (($x47 (= h1.f3 ?x37)))
 (let (($x48 (not $x47)))
 (let (($x43 (= h1.f2 ?x37)))
 (let (($x44 (not $x43)))
 (let (($x41 (and true (not (= h1.f1 ?x37)))))
 (let (($x1579 (and $x41 $x44)))
 (let (($x2329 (and $x1579 $x48)))
 (let (($x2697 (and $x2329 $x52)))
 (let (($x2875 (and $x2697 $x56)))
 (let (($x2959 (and $x2875 $x60)))
 (let (($x3040 (ite $x55 (ite $x59 false (and (and $x2697 $x55) $x60)) (ite $x59 false $x2959))))
 (let (($x2864 (ite $x55 (ite $x59 false (and (and (and $x2329 $x51) $x55) $x60)) (ite $x59 false (and (and (and $x2329 $x51) $x56) $x60)))))
 (let (($x2674 (ite $x55 (ite $x59 false (and (and (and (and $x1579 $x47) $x52) $x55) $x60)) (ite $x59 false (and (and (and (and $x1579 $x47) $x52) $x56) $x60)))))
 (let (($x2498 (ite $x55 (ite $x59 false (and (and (and (and $x1579 $x47) $x51) $x55) $x60)) (ite $x59 false (and (and (and (and $x1579 $x47) $x51) $x56) $x60)))))
 (let (($x1578 (and $x41 $x43)))
 (let (($x1581 (and $x1578 $x48)))
 (let (($x1949 (and $x1581 $x52)))
 (let (($x2127 (and $x1949 $x56)))
 (let (($x2211 (and $x2127 $x60)))
 (let (($x2292 (ite $x55 (ite $x59 false (and (and $x1949 $x55) $x60)) (ite $x59 false $x2211))))
 (let (($x2116 (ite $x55 (ite $x59 false (and (and (and $x1581 $x51) $x55) $x60)) (ite $x59 false (and (and (and $x1581 $x51) $x56) $x60)))))
 (let (($x1926 (ite $x55 (ite $x59 false (and (and (and (and $x1578 $x47) $x52) $x55) $x60)) (ite $x59 false (and (and (and (and $x1578 $x47) $x52) $x56) $x60)))))
 (let (($x1750 (ite $x55 (ite $x59 false (and (and (and (and $x1578 $x47) $x51) $x55) $x60)) (ite $x59 false (and (and (and (and $x1578 $x47) $x51) $x56) $x60)))))
 (let (($x3079 (ite $x43 (ite $x47 (ite $x51 $x1750 $x1926) (ite $x51 $x2116 $x2292)) (ite $x47 (ite $x51 $x2498 $x2674) (ite $x51 $x2864 $x3040)))))
 (let (($x38 (= h1.f1 ?x37)))
 (let (($x40 (and true $x38)))
 (let (($x46 (and $x40 $x44)))
 (let (($x815 (and $x46 $x48)))
 (let (($x1183 (and $x815 $x52)))
 (let (($x1361 (and $x1183 $x56)))
 (let (($x1445 (and $x1361 $x60)))
 (let (($x1526 (ite $x55 (ite $x59 false (and (and $x1183 $x55) $x60)) (ite $x59 false $x1445))))
 (let (($x1350 (ite $x55 (ite $x59 false (and (and (and $x815 $x51) $x55) $x60)) (ite $x59 false (and (and (and $x815 $x51) $x56) $x60)))))
 (let (($x1160 (ite $x55 (ite $x59 false (and (and (and (and $x46 $x47) $x52) $x55) $x60)) (ite $x59 false (and (and (and (and $x46 $x47) $x52) $x56) $x60)))))
 (let (($x984 (ite $x55 (ite $x59 false (and (and (and (and $x46 $x47) $x51) $x55) $x60)) (ite $x59 false (and (and (and (and $x46 $x47) $x51) $x56) $x60)))))
 (let (($x45 (and $x40 $x43)))
 (let (($x50 (and $x45 $x48)))
 (let (($x435 (and $x50 $x52)))
 (let (($x613 (and $x435 $x56)))
 (let (($x697 (and $x613 $x60)))
 (let (($x778 (ite $x55 (ite $x59 false (and (and $x435 $x55) $x60)) (ite $x59 false $x697))))
 (let (($x602 (ite $x55 (ite $x59 false (and (and (and $x50 $x51) $x55) $x60)) (ite $x59 false (and (and (and $x50 $x51) $x56) $x60)))))
 (let (($x412 (ite $x55 (ite $x59 false (and (and (and (and $x45 $x47) $x52) $x55) $x60)) (ite $x59 false (and (and (and (and $x45 $x47) $x52) $x56) $x60)))))
 (let (($x236 (ite $x55 (ite $x59 false (and (and (and (and $x45 $x47) $x51) $x55) $x60)) (ite $x59 false (and (and (and (and $x45 $x47) $x51) $x56) $x60)))))
 (let (($x1565 (ite $x43 (ite $x47 (ite $x51 $x236 $x412) (ite $x51 $x602 $x778)) (ite $x47 (ite $x51 $x984 $x1160) (ite $x51 $x1350 $x1526)))))
 (let (($x3096 (ite $x38 $x1565 $x3079)))
 (let (($x3111 (= standard_metadata.egress_spec (_ bv511 9))))
 (let (($x3171 (not $x3111)))
 (and (and $x3171 $x3096) (= (- 1) (- 1)))))))))))))))))))))))))))))))))))))))))))))))))))))))))))
(check-sat)

